112 114 111 110 109 108 107 542 541 543 544 545 546 547 103 104 105 106 117 115 116 128 127 126 125 124 69 70 68 67 66 65 72 71 123 122 121 120 118 119 73 74 75 64 76 77 78 62 63 60 61 79 80 81 59 58 57 82 83 84 51 50 52 53 56 55 54 49 48 47 44 43 42 39 41 40 35 34 33 38 37 36 32 30 31 29 28 27 26 25 24 21 22 23 12 13 20 19 568 569 570 18 17 16 15 14 11 10 9 8 7 6 5 4 3 2 1 0 573 572 571 466 467 468 469 470 471 472 473 474 567 566 565 564 563 562 561 560 559 558 557 556 555 45 46 91 92 93 90 85 86 87 88 89 94 97 95 96 98 554 553 552 99 100 102 101 551 550 549 548 478 477 479 480 476 475 482 481 483 485 484 536 537 539 540 538 534 535 487 486 488 533 532 489 531 530 529 528 490 491 492 493 524 525 526 523 522 521 520 494 495 518 519 498 497 496 465 464 463 462 461 460 459 458 457 456 455 454 439 440 453 452 499 500 501 502 503 517 516 515 514 527 512 513 511 510 509 508 507 506 504 505 308 309 310 311 312 451 450 441 449 448 447 446 442 443 444 445 436 438 437 435 434 433 432 430 429 428 427 426 425 424 423 422 421 420 419 417 418 410 411 412 356 357 355 354 353 352 413 414 416 415 351 350 349 348 347 362 363 361 358 359 360 401 402 403 400 399 398 397 394 393 391 392 390 389 388 387 385 408 407 406 405 404 409 384 383 386 382 431 381 380 379 378 377 314 315 376 375 374 373 395 396 371 372 370 369 368 367 365 364 346 345 344 343 341 340 339 338 337 336 335 334 283 284 285 286 287 280 281 282 279 278 277 276 290 289 288 333 332 331 330 342 366 329 328 327 326 325 324 323 322 316 313 305 317 321 320 319 318 306 304 307 303 302 301 300 258 299 298 297 296 295 294 293 291 292 275 274 273 272 271 268 269 270 267 266 265 264 263 262 259 261 260 257 256 255 253 254 252 251 250 249 248 241 242 243 244 245 247 246 238 239 240 237 236 235 234 232 233 231 230 229 228 189 227 186 188 187 178 177 176 175 174 173 172 170 171 169 180 181 179 182 183 185 184 193 192 191 190 226 225 219 218 220 221 222 224 223 217 216 215 214 213 212 211 210 209 194 195 196 197 205 206 207 208 198 199 200 201 202 204 203 165 164 166 167 163 168 162 161 160 159 156 155 154 153 157 158 145 146 147 148 152 149 150 151 142 143 144 141 140 139 138 129 130 137 136 135 134 133 132 131 113